c A SAT instance generated from a 3-CNF formula that had 39 clauses and 13 variables
p cnf 13 39
-4 -6 -7 0
3 13 -10 0
-12 1 -3 0
-11 -2 -3 0
2 1 8 0
13 3 5 0
1 -13 9 0
11 13 -9 0
10 6 8 0
13 6 5 0
-10 -6 -3 0
9 8 3 0
5 7 -3 0
-7 2 4 0
-8 -4 10 0
2 -1 8 0
-2 12 -11 0
11 -10 -12 0
6 -7 1 0
2 13 -10 0
-8 7 12 0
3 -11 4 0
2 -11 -8 0
-2 5 -12 0
9 13 -5 0
12 3 -1 0
12 1 -5 0
-2 10 11 0
-1 -9 13 0
-9 1 3 0
-8 4 -9 0
1 -5 -4 0
1 -2 -12 0
-9 1 -10 0
10 5 2 0
-9 -10 2 0
-2 -4 -7 0
-9 -10 -12 0
7 -9 -11 0
